37 16 26 92 41 81 51 99 94 90 89 98 61 40 93 32 64 47 24 74 54 28 71 56 42 43 9 13 1 4 82 69 88 59 83 11 75 86 84 52 57 17 6 55 46 39 34 12 25 70 91 33 29 20 58 63 76 48 49 72 44 23 3 66 15 14 36 68 5 60 22 77 7 27 50 0 73 97 62 79 53 38 85 95 35 19 87 10 96 18 8 45 65 2 80 31 21 30 67 78 

